# pair coeff#
pair_style deepmd frozen_model.pb
pair_coeff * * 